postproc_setup= .true.
num_iter=0    # don't calcultae Maximally Localize
dis_num_iter=1000
iprint = 3

optimisation = 1  # speed

num_bands = 140
exclude_bands= 1-64,135-140
num_wann =  32

begin projections
In : l=0
As : p
As : d
end projections

spinors = .true.

begin unit_cell_cart
     2.1035000    -3.6433689     0.0000000
     2.1035000     3.6433689     0.0000000
     0.0000000     0.0000000    17.8890000
end unit_cell_cart

begin atoms_cart
Eu       0.0000000     0.0000000     0.0000000
Eu       0.0000000     0.0000000     8.9445000
In       2.1035000    -1.2144563     5.8756420
In       2.1035000     1.2144563    14.8201420
In       2.1035000     1.2144563    12.0133580
In       2.1035000    -1.2144563     3.0688580
As       2.1035000     1.2144563     1.9151963
As       2.1035000     1.2144563     7.0293037
As       2.1035000    -1.2144563    10.8596963
As       2.1035000    -1.2144563    15.9738037
end atoms_cart

mp_grid =    12    12     8

begin kpoints
      0.000000000000      0.000000000000      0.000000000000
      0.083333333333      0.000000000000      0.000000000000
      0.166666666667      0.000000000000      0.000000000000
      0.250000000000      0.000000000000      0.000000000000
      0.333333333333      0.000000000000      0.000000000000
      0.416666666667      0.000000000000      0.000000000000
      0.500000000000      0.000000000000      0.000000000000
      0.083333333333      0.083333333333      0.000000000000
      0.166666666667      0.083333333333      0.000000000000
      0.250000000000      0.083333333333      0.000000000000
      0.333333333333      0.083333333333      0.000000000000
      0.416666666667      0.083333333333      0.000000000000
      0.500000000000      0.083333333333      0.000000000000
     -0.416666666667      0.083333333333      0.000000000000
     -0.333333333333      0.083333333333      0.000000000000
     -0.250000000000      0.083333333333      0.000000000000
     -0.166666666667      0.083333333333      0.000000000000
     -0.083333333333      0.083333333333      0.000000000000
      0.166666666667      0.166666666667      0.000000000000
      0.250000000000      0.166666666667      0.000000000000
      0.333333333333      0.166666666667      0.000000000000
      0.416666666667      0.166666666667      0.000000000000
      0.500000000000      0.166666666667      0.000000000000
     -0.416666666667      0.166666666667      0.000000000000
     -0.333333333333      0.166666666667      0.000000000000
     -0.250000000000      0.166666666667      0.000000000000
     -0.166666666667      0.166666666667      0.000000000000
      0.250000000000      0.250000000000      0.000000000000
      0.333333333333      0.250000000000      0.000000000000
      0.416666666667      0.250000000000      0.000000000000
      0.500000000000      0.250000000000      0.000000000000
     -0.416666666667      0.250000000000      0.000000000000
     -0.333333333333      0.250000000000      0.000000000000
     -0.250000000000      0.250000000000      0.000000000000
      0.333333333333      0.333333333333      0.000000000000
      0.416666666667      0.333333333333      0.000000000000
      0.500000000000      0.333333333333      0.000000000000
     -0.416666666667      0.333333333333      0.000000000000
     -0.333333333333      0.333333333333      0.000000000000
      0.416666666667      0.416666666667      0.000000000000
      0.500000000000      0.416666666667      0.000000000000
     -0.416666666667      0.416666666667      0.000000000000
      0.500000000000      0.500000000000      0.000000000000
      0.000000000000      0.000000000000      0.125000000000
      0.083333333333      0.000000000000      0.125000000000
      0.166666666667      0.000000000000      0.125000000000
      0.250000000000      0.000000000000      0.125000000000
      0.333333333333      0.000000000000      0.125000000000
      0.416666666667      0.000000000000      0.125000000000
      0.500000000000      0.000000000000      0.125000000000
      0.083333333333      0.083333333333      0.125000000000
      0.166666666667      0.083333333333      0.125000000000
      0.250000000000      0.083333333333      0.125000000000
      0.333333333333      0.083333333333      0.125000000000
      0.416666666667      0.083333333333      0.125000000000
      0.500000000000      0.083333333333      0.125000000000
     -0.416666666667      0.083333333333      0.125000000000
     -0.333333333333      0.083333333333      0.125000000000
     -0.250000000000      0.083333333333      0.125000000000
     -0.166666666667      0.083333333333      0.125000000000
     -0.083333333333      0.083333333333      0.125000000000
      0.166666666667      0.166666666667      0.125000000000
      0.250000000000      0.166666666667      0.125000000000
      0.333333333333      0.166666666667      0.125000000000
      0.416666666667      0.166666666667      0.125000000000
      0.500000000000      0.166666666667      0.125000000000
     -0.416666666667      0.166666666667      0.125000000000
     -0.333333333333      0.166666666667      0.125000000000
     -0.250000000000      0.166666666667      0.125000000000
     -0.166666666667      0.166666666667      0.125000000000
      0.250000000000      0.250000000000      0.125000000000
      0.333333333333      0.250000000000      0.125000000000
      0.416666666667      0.250000000000      0.125000000000
      0.500000000000      0.250000000000      0.125000000000
     -0.416666666667      0.250000000000      0.125000000000
     -0.333333333333      0.250000000000      0.125000000000
     -0.250000000000      0.250000000000      0.125000000000
      0.333333333333      0.333333333333      0.125000000000
      0.416666666667      0.333333333333      0.125000000000
      0.500000000000      0.333333333333      0.125000000000
     -0.416666666667      0.333333333333      0.125000000000
     -0.333333333333      0.333333333333      0.125000000000
      0.416666666667      0.416666666667      0.125000000000
      0.500000000000      0.416666666667      0.125000000000
     -0.416666666667      0.416666666667      0.125000000000
      0.500000000000      0.500000000000      0.125000000000
      0.000000000000      0.000000000000      0.250000000000
      0.083333333333      0.000000000000      0.250000000000
      0.166666666667      0.000000000000      0.250000000000
      0.250000000000      0.000000000000      0.250000000000
      0.333333333333      0.000000000000      0.250000000000
      0.416666666667      0.000000000000      0.250000000000
      0.500000000000      0.000000000000      0.250000000000
      0.083333333333      0.083333333333      0.250000000000
      0.166666666667      0.083333333333      0.250000000000
      0.250000000000      0.083333333333      0.250000000000
      0.333333333333      0.083333333333      0.250000000000
      0.416666666667      0.083333333333      0.250000000000
      0.500000000000      0.083333333333      0.250000000000
     -0.416666666667      0.083333333333      0.250000000000
     -0.333333333333      0.083333333333      0.250000000000
     -0.250000000000      0.083333333333      0.250000000000
     -0.166666666667      0.083333333333      0.250000000000
     -0.083333333333      0.083333333333      0.250000000000
      0.166666666667      0.166666666667      0.250000000000
      0.250000000000      0.166666666667      0.250000000000
      0.333333333333      0.166666666667      0.250000000000
      0.416666666667      0.166666666667      0.250000000000
      0.500000000000      0.166666666667      0.250000000000
     -0.416666666667      0.166666666667      0.250000000000
     -0.333333333333      0.166666666667      0.250000000000
     -0.250000000000      0.166666666667      0.250000000000
     -0.166666666667      0.166666666667      0.250000000000
      0.250000000000      0.250000000000      0.250000000000
      0.333333333333      0.250000000000      0.250000000000
      0.416666666667      0.250000000000      0.250000000000
      0.500000000000      0.250000000000      0.250000000000
     -0.416666666667      0.250000000000      0.250000000000
     -0.333333333333      0.250000000000      0.250000000000
     -0.250000000000      0.250000000000      0.250000000000
      0.333333333333      0.333333333333      0.250000000000
      0.416666666667      0.333333333333      0.250000000000
      0.500000000000      0.333333333333      0.250000000000
     -0.416666666667      0.333333333333      0.250000000000
     -0.333333333333      0.333333333333      0.250000000000
      0.416666666667      0.416666666667      0.250000000000
      0.500000000000      0.416666666667      0.250000000000
     -0.416666666667      0.416666666667      0.250000000000
      0.500000000000      0.500000000000      0.250000000000
      0.000000000000      0.000000000000      0.375000000000
      0.083333333333      0.000000000000      0.375000000000
      0.166666666667      0.000000000000      0.375000000000
      0.250000000000      0.000000000000      0.375000000000
      0.333333333333      0.000000000000      0.375000000000
      0.416666666667      0.000000000000      0.375000000000
      0.500000000000      0.000000000000      0.375000000000
      0.083333333333      0.083333333333      0.375000000000
      0.166666666667      0.083333333333      0.375000000000
      0.250000000000      0.083333333333      0.375000000000
      0.333333333333      0.083333333333      0.375000000000
      0.416666666667      0.083333333333      0.375000000000
      0.500000000000      0.083333333333      0.375000000000
     -0.416666666667      0.083333333333      0.375000000000
     -0.333333333333      0.083333333333      0.375000000000
     -0.250000000000      0.083333333333      0.375000000000
     -0.166666666667      0.083333333333      0.375000000000
     -0.083333333333      0.083333333333      0.375000000000
      0.166666666667      0.166666666667      0.375000000000
      0.250000000000      0.166666666667      0.375000000000
      0.333333333333      0.166666666667      0.375000000000
      0.416666666667      0.166666666667      0.375000000000
      0.500000000000      0.166666666667      0.375000000000
     -0.416666666667      0.166666666667      0.375000000000
     -0.333333333333      0.166666666667      0.375000000000
     -0.250000000000      0.166666666667      0.375000000000
     -0.166666666667      0.166666666667      0.375000000000
      0.250000000000      0.250000000000      0.375000000000
      0.333333333333      0.250000000000      0.375000000000
      0.416666666667      0.250000000000      0.375000000000
      0.500000000000      0.250000000000      0.375000000000
     -0.416666666667      0.250000000000      0.375000000000
     -0.333333333333      0.250000000000      0.375000000000
     -0.250000000000      0.250000000000      0.375000000000
      0.333333333333      0.333333333333      0.375000000000
      0.416666666667      0.333333333333      0.375000000000
      0.500000000000      0.333333333333      0.375000000000
     -0.416666666667      0.333333333333      0.375000000000
     -0.333333333333      0.333333333333      0.375000000000
      0.416666666667      0.416666666667      0.375000000000
      0.500000000000      0.416666666667      0.375000000000
     -0.416666666667      0.416666666667      0.375000000000
      0.500000000000      0.500000000000      0.375000000000
      0.000000000000      0.000000000000      0.500000000000
      0.083333333333      0.000000000000      0.500000000000
      0.166666666667      0.000000000000      0.500000000000
      0.250000000000      0.000000000000      0.500000000000
      0.333333333333      0.000000000000      0.500000000000
      0.416666666667      0.000000000000      0.500000000000
      0.500000000000      0.000000000000      0.500000000000
      0.083333333333      0.083333333333      0.500000000000
      0.166666666667      0.083333333333      0.500000000000
      0.250000000000      0.083333333333      0.500000000000
      0.333333333333      0.083333333333      0.500000000000
      0.416666666667      0.083333333333      0.500000000000
      0.500000000000      0.083333333333      0.500000000000
     -0.416666666667      0.083333333333      0.500000000000
     -0.333333333333      0.083333333333      0.500000000000
     -0.250000000000      0.083333333333      0.500000000000
     -0.166666666667      0.083333333333      0.500000000000
     -0.083333333333      0.083333333333      0.500000000000
      0.166666666667      0.166666666667      0.500000000000
      0.250000000000      0.166666666667      0.500000000000
      0.333333333333      0.166666666667      0.500000000000
      0.416666666667      0.166666666667      0.500000000000
      0.500000000000      0.166666666667      0.500000000000
     -0.416666666667      0.166666666667      0.500000000000
     -0.333333333333      0.166666666667      0.500000000000
     -0.250000000000      0.166666666667      0.500000000000
     -0.166666666667      0.166666666667      0.500000000000
      0.250000000000      0.250000000000      0.500000000000
      0.333333333333      0.250000000000      0.500000000000
      0.416666666667      0.250000000000      0.500000000000
      0.500000000000      0.250000000000      0.500000000000
     -0.416666666667      0.250000000000      0.500000000000
     -0.333333333333      0.250000000000      0.500000000000
     -0.250000000000      0.250000000000      0.500000000000
      0.333333333333      0.333333333333      0.500000000000
      0.416666666667      0.333333333333      0.500000000000
      0.500000000000      0.333333333333      0.500000000000
     -0.416666666667      0.333333333333      0.500000000000
     -0.333333333333      0.333333333333      0.500000000000
      0.416666666667      0.416666666667      0.500000000000
      0.500000000000      0.416666666667      0.500000000000
     -0.416666666667      0.416666666667      0.500000000000
      0.500000000000      0.500000000000      0.500000000000
     -0.083333333333      0.000000000000      0.000000000000
      0.000000000000      0.083333333333      0.000000000000
      0.000000000000     -0.083333333333      0.000000000000
     -0.166666666667      0.000000000000      0.000000000000
      0.000000000000      0.166666666667      0.000000000000
      0.000000000000     -0.166666666667      0.000000000000
     -0.250000000000     -0.000000000000      0.000000000000
      0.000000000000      0.250000000000      0.000000000000
     -0.000000000000     -0.250000000000      0.000000000000
     -0.333333333333     -0.000000000000      0.000000000000
      0.000000000000      0.333333333333      0.000000000000
     -0.000000000000     -0.333333333333      0.000000000000
     -0.416666666667     -0.000000000000      0.000000000000
      0.000000000000      0.416666666667      0.000000000000
     -0.000000000000     -0.416666666667      0.000000000000
      0.000000000000      0.500000000000      0.000000000000
     -0.083333333333     -0.083333333333      0.000000000000
     -0.166666666667     -0.083333333333      0.000000000000
      0.083333333333      0.166666666667      0.000000000000
     -0.083333333333     -0.166666666667      0.000000000000
     -0.250000000000     -0.083333333333      0.000000000000
      0.083333333333      0.250000000000      0.000000000000
     -0.083333333333     -0.250000000000      0.000000000000
     -0.333333333333     -0.083333333333      0.000000000000
      0.083333333333      0.333333333333      0.000000000000
     -0.083333333333     -0.333333333333      0.000000000000
     -0.416666666667     -0.083333333333      0.000000000000
      0.083333333333      0.416666666667      0.000000000000
     -0.083333333333     -0.416666666667      0.000000000000
     -0.500000000000     -0.083333333333      0.000000000000
      0.083333333333      0.500000000000      0.000000000000
     -0.083333333333     -0.500000000000      0.000000000000
      0.416666666667     -0.083333333333      0.000000000000
      0.083333333333     -0.416666666667      0.000000000000
     -0.083333333333      0.416666666667      0.000000000000
      0.333333333333     -0.083333333333      0.000000000000
      0.083333333333     -0.333333333333      0.000000000000
     -0.083333333333      0.333333333333      0.000000000000
      0.250000000000     -0.083333333333      0.000000000000
      0.083333333333     -0.250000000000      0.000000000000
     -0.083333333333      0.250000000000      0.000000000000
      0.166666666667     -0.083333333333      0.000000000000
      0.083333333333     -0.166666666667      0.000000000000
     -0.083333333333      0.166666666667      0.000000000000
      0.083333333333     -0.083333333333      0.000000000000
     -0.166666666667     -0.166666666667      0.000000000000
     -0.250000000000     -0.166666666667      0.000000000000
      0.166666666667      0.250000000000      0.000000000000
     -0.166666666667     -0.250000000000      0.000000000000
     -0.333333333333     -0.166666666667      0.000000000000
      0.166666666667      0.333333333333      0.000000000000
     -0.166666666667     -0.333333333333      0.000000000000
     -0.416666666667     -0.166666666667      0.000000000000
      0.166666666667      0.416666666667      0.000000000000
     -0.166666666667     -0.416666666667      0.000000000000
     -0.500000000000     -0.166666666667      0.000000000000
      0.166666666667      0.500000000000      0.000000000000
     -0.166666666667     -0.500000000000      0.000000000000
      0.416666666667     -0.166666666667      0.000000000000
      0.166666666667     -0.416666666667      0.000000000000
     -0.166666666667      0.416666666667      0.000000000000
      0.333333333333     -0.166666666667      0.000000000000
      0.166666666667     -0.333333333333      0.000000000000
     -0.166666666667      0.333333333333      0.000000000000
      0.250000000000     -0.166666666667      0.000000000000
      0.166666666667     -0.250000000000      0.000000000000
     -0.166666666667      0.250000000000      0.000000000000
      0.166666666667     -0.166666666667      0.000000000000
     -0.250000000000     -0.250000000000      0.000000000000
     -0.333333333333     -0.250000000000      0.000000000000
      0.250000000000      0.333333333333      0.000000000000
     -0.250000000000     -0.333333333333      0.000000000000
     -0.416666666667     -0.250000000000      0.000000000000
      0.250000000000      0.416666666667      0.000000000000
     -0.250000000000     -0.416666666667      0.000000000000
     -0.500000000000     -0.250000000000      0.000000000000
      0.250000000000      0.500000000000      0.000000000000
     -0.250000000000     -0.500000000000      0.000000000000
      0.416666666667     -0.250000000000      0.000000000000
      0.250000000000     -0.416666666667      0.000000000000
     -0.250000000000      0.416666666667      0.000000000000
      0.333333333333     -0.250000000000      0.000000000000
      0.250000000000     -0.333333333333      0.000000000000
     -0.250000000000      0.333333333333      0.000000000000
      0.250000000000     -0.250000000000      0.000000000000
     -0.333333333333     -0.333333333333      0.000000000000
     -0.416666666667     -0.333333333333      0.000000000000
      0.333333333333      0.416666666667      0.000000000000
     -0.333333333333     -0.416666666667      0.000000000000
     -0.500000000000     -0.333333333333      0.000000000000
      0.333333333333      0.500000000000      0.000000000000
     -0.333333333333     -0.500000000000      0.000000000000
      0.416666666667     -0.333333333333      0.000000000000
      0.333333333333     -0.416666666667      0.000000000000
     -0.333333333333      0.416666666667      0.000000000000
      0.333333333333     -0.333333333333      0.000000000000
     -0.416666666667     -0.416666666667      0.000000000000
     -0.500000000000     -0.416666666667      0.000000000000
      0.416666666667      0.500000000000      0.000000000000
     -0.416666666667     -0.500000000000      0.000000000000
      0.416666666667     -0.416666666667      0.000000000000
      0.000000000000      0.000000000000     -0.125000000000
     -0.083333333333      0.000000000000     -0.125000000000
      0.000000000000      0.083333333333     -0.125000000000
      0.000000000000     -0.083333333333      0.125000000000
     -0.083333333333      0.000000000000      0.125000000000
      0.083333333333      0.000000000000     -0.125000000000
      0.000000000000     -0.083333333333     -0.125000000000
      0.000000000000      0.083333333333      0.125000000000
     -0.166666666667      0.000000000000     -0.125000000000
      0.000000000000      0.166666666667     -0.125000000000
      0.000000000000     -0.166666666667      0.125000000000
     -0.166666666667      0.000000000000      0.125000000000
      0.166666666667      0.000000000000     -0.125000000000
      0.000000000000     -0.166666666667     -0.125000000000
      0.000000000000      0.166666666667      0.125000000000
     -0.250000000000     -0.000000000000     -0.125000000000
      0.000000000000      0.250000000000     -0.125000000000
     -0.000000000000     -0.250000000000      0.125000000000
     -0.250000000000     -0.000000000000      0.125000000000
      0.250000000000      0.000000000000     -0.125000000000
     -0.000000000000     -0.250000000000     -0.125000000000
      0.000000000000      0.250000000000      0.125000000000
     -0.333333333333     -0.000000000000     -0.125000000000
      0.000000000000      0.333333333333     -0.125000000000
     -0.000000000000     -0.333333333333      0.125000000000
     -0.333333333333     -0.000000000000      0.125000000000
      0.333333333333      0.000000000000     -0.125000000000
     -0.000000000000     -0.333333333333     -0.125000000000
      0.000000000000      0.333333333333      0.125000000000
     -0.416666666667     -0.000000000000     -0.125000000000
      0.000000000000      0.416666666667     -0.125000000000
     -0.000000000000     -0.416666666667      0.125000000000
     -0.416666666667     -0.000000000000      0.125000000000
      0.416666666667      0.000000000000     -0.125000000000
     -0.000000000000     -0.416666666667     -0.125000000000
      0.000000000000      0.416666666667      0.125000000000
     -0.500000000000     -0.000000000000     -0.125000000000
      0.000000000000      0.500000000000     -0.125000000000
     -0.000000000000     -0.500000000000      0.125000000000
     -0.083333333333     -0.083333333333     -0.125000000000
      0.083333333333      0.083333333333     -0.125000000000
     -0.083333333333     -0.083333333333      0.125000000000
     -0.166666666667     -0.083333333333     -0.125000000000
      0.083333333333      0.166666666667     -0.125000000000
     -0.083333333333     -0.166666666667      0.125000000000
     -0.166666666667     -0.083333333333      0.125000000000
      0.166666666667      0.083333333333     -0.125000000000
     -0.083333333333     -0.166666666667     -0.125000000000
      0.083333333333      0.166666666667      0.125000000000
     -0.250000000000     -0.083333333333     -0.125000000000
      0.083333333333      0.250000000000     -0.125000000000
     -0.083333333333     -0.250000000000      0.125000000000
     -0.250000000000     -0.083333333333      0.125000000000
      0.250000000000      0.083333333333     -0.125000000000
     -0.083333333333     -0.250000000000     -0.125000000000
      0.083333333333      0.250000000000      0.125000000000
     -0.333333333333     -0.083333333333     -0.125000000000
      0.083333333333      0.333333333333     -0.125000000000
     -0.083333333333     -0.333333333333      0.125000000000
     -0.333333333333     -0.083333333333      0.125000000000
      0.333333333333      0.083333333333     -0.125000000000
     -0.083333333333     -0.333333333333     -0.125000000000
      0.083333333333      0.333333333333      0.125000000000
     -0.416666666667     -0.083333333333     -0.125000000000
      0.083333333333      0.416666666667     -0.125000000000
     -0.083333333333     -0.416666666667      0.125000000000
     -0.416666666667     -0.083333333333      0.125000000000
      0.416666666667      0.083333333333     -0.125000000000
     -0.083333333333     -0.416666666667     -0.125000000000
      0.083333333333      0.416666666667      0.125000000000
     -0.500000000000     -0.083333333333     -0.125000000000
      0.083333333333      0.500000000000     -0.125000000000
     -0.083333333333     -0.500000000000      0.125000000000
     -0.500000000000     -0.083333333333      0.125000000000
      0.500000000000      0.083333333333     -0.125000000000
     -0.083333333333     -0.500000000000     -0.125000000000
      0.083333333333      0.500000000000      0.125000000000
      0.416666666667     -0.083333333333     -0.125000000000
      0.083333333333     -0.416666666667     -0.125000000000
     -0.083333333333      0.416666666667      0.125000000000
      0.416666666667     -0.083333333333      0.125000000000
     -0.416666666667      0.083333333333     -0.125000000000
     -0.083333333333      0.416666666667     -0.125000000000
      0.083333333333     -0.416666666667      0.125000000000
      0.333333333333     -0.083333333333     -0.125000000000
      0.083333333333     -0.333333333333     -0.125000000000
     -0.083333333333      0.333333333333      0.125000000000
      0.333333333333     -0.083333333333      0.125000000000
     -0.333333333333      0.083333333333     -0.125000000000
     -0.083333333333      0.333333333333     -0.125000000000
      0.083333333333     -0.333333333333      0.125000000000
      0.250000000000     -0.083333333333     -0.125000000000
      0.083333333333     -0.250000000000     -0.125000000000
     -0.083333333333      0.250000000000      0.125000000000
      0.250000000000     -0.083333333333      0.125000000000
     -0.250000000000      0.083333333333     -0.125000000000
     -0.083333333333      0.250000000000     -0.125000000000
      0.083333333333     -0.250000000000      0.125000000000
      0.166666666667     -0.083333333333     -0.125000000000
      0.083333333333     -0.166666666667     -0.125000000000
     -0.083333333333      0.166666666667      0.125000000000
      0.166666666667     -0.083333333333      0.125000000000
     -0.166666666667      0.083333333333     -0.125000000000
     -0.083333333333      0.166666666667     -0.125000000000
      0.083333333333     -0.166666666667      0.125000000000
      0.083333333333     -0.083333333333     -0.125000000000
      0.083333333333     -0.083333333333      0.125000000000
     -0.083333333333      0.083333333333     -0.125000000000
     -0.166666666667     -0.166666666667     -0.125000000000
      0.166666666667      0.166666666667     -0.125000000000
     -0.166666666667     -0.166666666667      0.125000000000
     -0.250000000000     -0.166666666667     -0.125000000000
      0.166666666667      0.250000000000     -0.125000000000
     -0.166666666667     -0.250000000000      0.125000000000
     -0.250000000000     -0.166666666667      0.125000000000
      0.250000000000      0.166666666667     -0.125000000000
     -0.166666666667     -0.250000000000     -0.125000000000
      0.166666666667      0.250000000000      0.125000000000
     -0.333333333333     -0.166666666667     -0.125000000000
      0.166666666667      0.333333333333     -0.125000000000
     -0.166666666667     -0.333333333333      0.125000000000
     -0.333333333333     -0.166666666667      0.125000000000
      0.333333333333      0.166666666667     -0.125000000000
     -0.166666666667     -0.333333333333     -0.125000000000
      0.166666666667      0.333333333333      0.125000000000
     -0.416666666667     -0.166666666667     -0.125000000000
      0.166666666667      0.416666666667     -0.125000000000
     -0.166666666667     -0.416666666667      0.125000000000
     -0.416666666667     -0.166666666667      0.125000000000
      0.416666666667      0.166666666667     -0.125000000000
     -0.166666666667     -0.416666666667     -0.125000000000
      0.166666666667      0.416666666667      0.125000000000
     -0.500000000000     -0.166666666667     -0.125000000000
      0.166666666667      0.500000000000     -0.125000000000
     -0.166666666667     -0.500000000000      0.125000000000
     -0.500000000000     -0.166666666667      0.125000000000
      0.500000000000      0.166666666667     -0.125000000000
     -0.166666666667     -0.500000000000     -0.125000000000
      0.166666666667      0.500000000000      0.125000000000
      0.416666666667     -0.166666666667     -0.125000000000
      0.166666666667     -0.416666666667     -0.125000000000
     -0.166666666667      0.416666666667      0.125000000000
      0.416666666667     -0.166666666667      0.125000000000
     -0.416666666667      0.166666666667     -0.125000000000
     -0.166666666667      0.416666666667     -0.125000000000
      0.166666666667     -0.416666666667      0.125000000000
      0.333333333333     -0.166666666667     -0.125000000000
      0.166666666667     -0.333333333333     -0.125000000000
     -0.166666666667      0.333333333333      0.125000000000
      0.333333333333     -0.166666666667      0.125000000000
     -0.333333333333      0.166666666667     -0.125000000000
     -0.166666666667      0.333333333333     -0.125000000000
      0.166666666667     -0.333333333333      0.125000000000
      0.250000000000     -0.166666666667     -0.125000000000
      0.166666666667     -0.250000000000     -0.125000000000
     -0.166666666667      0.250000000000      0.125000000000
      0.250000000000     -0.166666666667      0.125000000000
     -0.250000000000      0.166666666667     -0.125000000000
     -0.166666666667      0.250000000000     -0.125000000000